c FILE /home/rafael/Documents/HappySet/MIHS/inputs/happygen/output/graph_scale_free_k5_p0.3_v50_20241127_082445.txt
c SOURCE This is a scale-free graph formed for the happy graph colouring problem.
c DESCRIPTION It was generated using the problem generator of Rhyd Lewis
c
c GRAPH STATS
c Seed                             = -1025839335
c Number of Nodes                  = 50
c Number of colours k              = 5
c Number of pre-assignments        = 15
c Number of links per new node     = 5
c Density                          = 0.191837
c 
c The degrees of nodes 1 to 50, respectively, are as follows 
c [22, 22, 21, 20, 20, 19, 17, 15, 14, 13, 13, 12, 11, 11, 11, 11, 11, 10, 9, 8, 8, 8, 8, 8, 7, 7, 
c  7, 7, 7, 7, 6, 6, 6, 6, 6, 6, 5, 5, 5, 5, 5, 5, 5, 5, 5, 5, 5, 5, 5, 5] 
c  
p edge 50 235 5
e 1 2
e 1 3
e 1 4
e 1 5
e 1 6
e 1 7
e 1 10
e 1 13
e 1 14
e 1 15
e 1 18
e 1 19
e 1 23
e 1 25
e 1 27
e 1 29
e 1 31
e 1 32
e 1 37
e 1 38
e 1 43
e 1 46
e 2 3
e 2 4
e 2 6
e 2 7
e 2 8
e 2 10
e 2 11
e 2 13
e 2 16
e 2 20
e 2 25
e 2 26
e 2 27
e 2 28
e 2 29
e 2 31
e 2 32
e 2 33
e 2 37
e 2 39
e 2 41
e 3 4
e 3 5
e 3 6
e 3 7
e 3 8
e 3 9
e 3 10
e 3 11
e 3 12
e 3 13
e 3 16
e 3 18
e 3 20
e 3 24
e 3 30
e 3 34
e 3 35
e 3 41
e 3 50
e 4 5
e 4 6
e 4 7
e 4 8
e 4 9
e 4 10
e 4 11
e 4 18
e 4 19
e 4 22
e 4 23
e 4 26
e 4 29
e 4 30
e 4 31
e 4 42
e 4 50
e 5 7
e 5 8
e 5 9
e 5 10
e 5 12
e 5 13
e 5 15
e 5 16
e 5 17
e 5 19
e 5 20
e 5 24
e 5 25
e 5 27
e 5 31
e 5 35
e 5 49
e 6 7
e 6 8
e 6 9
e 6 16
e 6 22
e 6 27
e 6 29
e 6 32
e 6 36
e 6 38
e 6 39
e 6 41
e 6 42
e 6 44
e 6 48
e 7 9
e 7 10
e 7 11
e 7 13
e 7 15
e 7 18
e 7 19
e 7 26
e 7 43
e 7 44
e 7 49
e 8 14
e 8 16
e 8 17
e 8 24
e 8 27
e 8 28
e 8 31
e 8 36
e 8 45
e 8 47
e 9 19
e 9 22
e 9 25
e 9 30
e 9 33
e 9 34
e 9 35
e 9 38
e 9 46
e 10 11
e 10 12
e 10 14
e 10 15
e 10 25
e 10 36
e 10 39
e 11 14
e 11 15
e 11 18
e 11 21
e 11 28
e 11 29
e 11 32
e 11 39
e 12 13
e 12 17
e 12 18
e 12 21
e 12 24
e 12 26
e 12 37
e 12 40
e 12 43
e 13 20
e 13 21
e 13 23
e 13 26
e 13 36
e 14 25
e 14 33
e 14 39
e 14 40
e 14 47
e 14 48
e 14 49
e 15 20
e 15 21
e 15 23
e 15 28
e 15 42
e 15 48
e 16 17
e 16 23
e 16 24
e 16 28
e 16 41
e 16 47
e 17 26
e 17 33
e 17 37
e 17 38
e 17 41
e 17 46
e 17 47
e 18 40
e 18 43
e 18 44
e 18 50
e 19 21
e 19 30
e 19 42
e 19 48
e 20 22
e 20 37
e 20 48
e 21 34
e 21 42
e 21 45
e 22 29
e 22 35
e 22 43
e 22 49
e 23 34
e 23 38
e 23 46
e 24 30
e 24 46
e 24 50
e 25 33
e 26 32
e 27 40
e 27 47
e 28 34
e 28 44
e 29 35
e 30 40
e 30 45
e 31 45
e 32 49
e 33 36
e 34 50
e 35 45
e 36 44
n 6 5
n 10 1
n 11 1
n 17 3
n 19 2
n 20 5
n 23 3
n 24 3
n 26 3
n 35 4
n 40 4
n 43 2
n 44 5
n 45 4
n 49 2
